NAME 
ROWS
 N  OBJ
 L  R0      
 E  R1      
 E  R2      
 E  R3      
 E  R4      
 E  R5      
 E  R6      
 E  R7      
 E  R8      
 E  R9      
 E  R10     
 E  R11     
 E  R12     
 E  R13     
 E  R14     
 E  R15     
 E  R16     
 E  R17     
 E  R18     
 E  R19     
 E  R20     
 E  R21     
 E  R22     
 E  R23     
 E  R24     
 E  R25     
COLUMNS
    MARKER    'MARKER'                 'INTORG'
    I0(11)    OBJ       75
    I0(11)    R0        147
    I0(11)    R2        19
    I0(11)    R3        1
    I0(11)    R6        15
    I0(11)    R8        10
    I0(11)    R9        11
    I0(11)    R11       -1
    I0(11)    R12       16
    I0(11)    R14       5
    I0(11)    R15       -1
    I0(11)    R25       1
    I1(12)    OBJ       131
    I1(12)    R0        -190
    I1(12)    R1        4
    I1(12)    R2        18
    I1(12)    R5        18
    I1(12)    R6        11
    I1(12)    R7        7
    I1(12)    R8        9
    I1(12)    R9        12
    I1(12)    R11       8
    I1(12)    R12       10
    I1(12)    R14       14
    I1(12)    R25       1
    I2(12)    OBJ       -7
    I2(12)    R0        -8
    I2(12)    R2        9
    I2(12)    R3        13
    I2(12)    R4        17
    I2(12)    R5        10
    I2(12)    R6        14
    I2(12)    R8        18
    I2(12)    R9        14
    I2(12)    R12       5
    I2(12)    R14       15
    I2(12)    R15       8
    I2(12)    R25       1
    I3(12)    OBJ       181
    I3(12)    R0        -56
    I3(12)    R1        19
    I3(12)    R2        19
    I3(12)    R4        14
    I3(12)    R5        8
    I3(12)    R6        19
    I3(12)    R8        11
    I3(12)    R9        3
    I3(12)    R10       8
    I3(12)    R14       18
    I3(12)    R15       13
    I3(12)    R25       1
    I4(10)    OBJ       166
    I4(10)    R0        -70
    I4(10)    R2        8
    I4(10)    R5        10
    I4(10)    R6        8
    I4(10)    R7        14
    I4(10)    R8        7
    I4(10)    R10       5
    I4(10)    R12       12
    I4(10)    R13       12
    I4(10)    R25       1
    I5(12)    OBJ       -31
    I5(12)    R0        140
    I5(12)    R1        18
    I5(12)    R2        7
    I5(12)    R4        6
    I5(12)    R5        3
    I5(12)    R6        7
    I5(12)    R7        19
    I5(12)    R8        7
    I5(12)    R9        12
    I5(12)    R11       12
    I5(12)    R14       12
    I5(12)    R25       1
    I6(12)    OBJ       199
    I6(12)    R0        65
    I6(12)    R1        1
    I6(12)    R2        4
    I6(12)    R5        1
    I6(12)    R6        15
    I6(12)    R7        8
    I6(12)    R9        4
    I6(12)    R12       10
    I6(12)    R13       -1
    I6(12)    R14       17
    I6(12)    R15       18
    I6(12)    R25       1
    I7(16)    OBJ       -53
    I7(16)    R0        100
    I7(16)    R1        18
    I7(16)    R2        8
    I7(16)    R3        17
    I7(16)    R5        -1
    I7(16)    R6        3
    I7(16)    R7        14
    I7(16)    R8        9
    I7(16)    R9        1
    I7(16)    R10       5
    I7(16)    R11       17
    I7(16)    R12       -1
    I7(16)    R13       18
    I7(16)    R14       13
    I7(16)    R15       1
    I7(16)    R25       1
    I8(12)    OBJ       -48
    I8(12)    R0        -65
    I8(12)    R2        7
    I8(12)    R5        18
    I8(12)    R6        14
    I8(12)    R7        19
    I8(12)    R8        9
    I8(12)    R9        19
    I8(12)    R11       17
    I8(12)    R12       13
    I8(12)    R13       14
    I8(12)    R14       1
    I8(12)    R25       1
    I9(12)    OBJ       137
    I9(12)    R0        -9
    I9(12)    R3        11
    I9(12)    R4        6
    I9(12)    R5        19
    I9(12)    R6        16
    I9(12)    R8        12
    I9(12)    R10       18
    I9(12)    R11       7
    I9(12)    R12       14
    I9(12)    R13       16
    I9(12)    R15       3
    I9(12)    R25       1
    I10(8)    OBJ       -77
    I10(8)    R0        164
    I10(8)    R1        10
    I10(8)    R2        3
    I10(8)    R4        -1
    I10(8)    R8        13
    I10(8)    R12       18
    I10(8)    R15       7
    I10(8)    R25       1
    I11(9)    OBJ       -65
    I11(9)    R0        -194
    I11(9)    R4        -1
    I11(9)    R6        9
    I11(9)    R7        19
    I11(9)    R8        12
    I11(9)    R11       13
    I11(9)    R14       6
    I11(9)    R15       17
    I11(9)    R25       1
    I12(15)   OBJ       -145
    I12(15)   R0        52
    I12(15)   R1        -1
    I12(15)   R2        13
    I12(15)   R3        -1
    I12(15)   R4        18
    I12(15)   R5        14
    I12(15)   R6        7
    I12(15)   R7        6
    I12(15)   R8        15
    I12(15)   R10       -1
    I12(15)   R11       10
    I12(15)   R12       -1
    I12(15)   R14       16
    I12(15)   R15       6
    I12(15)   R25       1
    I13(9)    OBJ       -151
    I13(9)    R0        46
    I13(9)    R4        12
    I13(9)    R5        -1
    I13(9)    R7        18
    I13(9)    R10       3
    I13(9)    R11       12
    I13(9)    R13       6
    I13(9)    R14       17
    I13(9)    R25       1
    I14(12)   OBJ       -90
    I14(12)   R0        -33
    I14(12)   R2        4
    I14(12)   R4        1
    I14(12)   R7        2
    I14(12)   R8        9
    I14(12)   R9        3
    I14(12)   R10       15
    I14(12)   R11       9
    I14(12)   R12       16
    I14(12)   R13       14
    I14(12)   R15       -1
    I14(12)   R25       1
    MARKER    'MARKER'                 'INTEND'
    C15(15)   OBJ       5
    C15(15)   R0        7
    C15(15)   R2        16
    C15(15)   R3        15
    C15(15)   R6        3
    C15(15)   R7        2
    C15(15)   R9        15
    C15(15)   R10       19
    C15(15)   R11       13
    C15(15)   R12       17
    C15(15)   R13       6
    C15(15)   R14       12
    C15(15)   R17       -1
    C15(15)   R19       -1
    C15(15)   R20       16
    C15(15)   R23       8
    C16(18)   OBJ       8
    C16(18)   R0        5
    C16(18)   R1        8
    C16(18)   R3        11
    C16(18)   R4        6
    C16(18)   R5        1
    C16(18)   R6        1
    C16(18)   R7        18
    C16(18)   R8        13
    C16(18)   R10       19
    C16(18)   R13       17
    C16(18)   R14       15
    C16(18)   R15       11
    C16(18)   R16       17
    C16(18)   R17       3
    C16(18)   R18       7
    C16(18)   R19       10
    C16(18)   R20       4
    C16(18)   R23       11
    C17(15)   OBJ       8
    C17(15)   R0        -2
    C17(15)   R2        18
    C17(15)   R5        3
    C17(15)   R6        9
    C17(15)   R7        14
    C17(15)   R8        15
    C17(15)   R9        4
    C17(15)   R10       14
    C17(15)   R12       16
    C17(15)   R15       16
    C17(15)   R19       2
    C17(15)   R20       6
    C17(15)   R22       9
    C17(15)   R23       3
    C17(15)   R24       12
    C18(18)   OBJ       -5
    C18(18)   R0        -6
    C18(18)   R2        17
    C18(18)   R3        10
    C18(18)   R6        6
    C18(18)   R7        17
    C18(18)   R8        10
    C18(18)   R10       -1
    C18(18)   R11       2
    C18(18)   R12       9
    C18(18)   R13       4
    C18(18)   R14       19
    C18(18)   R18       10
    C18(18)   R19       17
    C18(18)   R20       6
    C18(18)   R21       19
    C18(18)   R22       16
    C18(18)   R23       4
    C18(18)   R24       12
    C19(16)   OBJ       -9
    C19(16)   R0        6
    C19(16)   R1        12
    C19(16)   R2        1
    C19(16)   R4        11
    C19(16)   R5        13
    C19(16)   R7        6
    C19(16)   R11       18
    C19(16)   R12       18
    C19(16)   R13       13
    C19(16)   R15       18
    C19(16)   R16       14
    C19(16)   R18       12
    C19(16)   R20       8
    C19(16)   R21       17
    C19(16)   R23       -1
    C19(16)   R24       9
    C20(22)   OBJ       6
    C20(22)   R0        6
    C20(22)   R1        11
    C20(22)   R2        15
    C20(22)   R3        -1
    C20(22)   R5        2
    C20(22)   R6        5
    C20(22)   R8        15
    C20(22)   R9        3
    C20(22)   R10       15
    C20(22)   R11       5
    C20(22)   R12       15
    C20(22)   R13       6
    C20(22)   R14       7
    C20(22)   R15       19
    C20(22)   R16       8
    C20(22)   R17       9
    C20(22)   R18       7
    C20(22)   R19       13
    C20(22)   R20       11
    C20(22)   R22       19
    C20(22)   R23       8
    C20(22)   R24       16
    C21(19)   OBJ       9
    C21(19)   R0        -5
    C21(19)   R1        5
    C21(19)   R3        1
    C21(19)   R4        16
    C21(19)   R6        7
    C21(19)   R8        -1
    C21(19)   R10       19
    C21(19)   R11       16
    C21(19)   R12       17
    C21(19)   R13       11
    C21(19)   R16       15
    C21(19)   R17       14
    C21(19)   R18       6
    C21(19)   R19       4
    C21(19)   R20       19
    C21(19)   R21       8
    C21(19)   R22       15
    C21(19)   R23       9
    C21(19)   R24       2
    C22(15)   OBJ       9
    C22(15)   R0        -1
    C22(15)   R1        8
    C22(15)   R2        12
    C22(15)   R3        10
    C22(15)   R4        13
    C22(15)   R5        16
    C22(15)   R10       17
    C22(15)   R11       12
    C22(15)   R12       -1
    C22(15)   R14       4
    C22(15)   R15       4
    C22(15)   R16       10
    C22(15)   R17       4
    C22(15)   R21       9
    C22(15)   R23       14
    C23(12)   OBJ       9
    C23(12)   R0        -8
    C23(12)   R1        6
    C23(12)   R2        2
    C23(12)   R4        16
    C23(12)   R5        5
    C23(12)   R11       16
    C23(12)   R13       12
    C23(12)   R15       1
    C23(12)   R16       14
    C23(12)   R17       17
    C23(12)   R22       8
    C23(12)   R23       4
    C24(13)   OBJ       -6
    C24(13)   R0        8
    C24(13)   R2        1
    C24(13)   R3        -1
    C24(13)   R5        -1
    C24(13)   R7        12
    C24(13)   R10       8
    C24(13)   R13       -1
    C24(13)   R14       6
    C24(13)   R15       2
    C24(13)   R17       17
    C24(13)   R18       6
    C24(13)   R21       11
    C24(13)   R23       -1
    C25(1)    R1        1
    C26(1)    R2        1
    C27(1)    R3        1
    C28(1)    R4        1
    C29(1)    R5        1
    C30(1)    R6        1
    C31(1)    R7        1
    C32(1)    R8        1
    C33(1)    R9        1
    C34(1)    R10       1
    C35(1)    R11       1
    C36(1)    R12       1
    C37(1)    R13       1
    C38(1)    R14       1
    C39(1)    R15       1
    C40(1)    R16       1
    C41(1)    R17       1
    C42(1)    R18       1
    C43(1)    R19       1
    C44(1)    R20       1
    C45(1)    R21       1
    C46(1)    R22       1
    C47(1)    R23       1
    C48(1)    R24       1
    C49(1)    R25       1
RHS
    RHS1      R0        68.5507246376816
    RHS1      R1        86
    RHS1      R2        88
    RHS1      R3        68
    RHS1      R4        64
    RHS1      R5        75
    RHS1      R6        52
    RHS1      R7        94
    RHS1      R8        87
    RHS1      R9        65
    RHS1      R10       97
    RHS1      R11       67
    RHS1      R12       96
    RHS1      R13       83
    RHS1      R14       64
    RHS1      R15       53
    RHS1      R16       84
    RHS1      R17       71
    RHS1      R18       51
    RHS1      R19       77
    RHS1      R20       96
    RHS1      R21       50
    RHS1      R22       65
    RHS1      R23       94
    RHS1      R24       69
    RHS1      R25       5
BOUNDS
 UP BND1      I0(11)    1
 UP BND1      I1(12)    1
 UP BND1      I2(12)    1
 UP BND1      I3(12)    1
 UP BND1      I4(10)    1
 UP BND1      I5(12)    1
 UP BND1      I6(12)    1
 UP BND1      I7(16)    1
 UP BND1      I8(12)    1
 UP BND1      I9(12)    1
 UP BND1      I10(8)    1
 UP BND1      I11(9)    1
 UP BND1      I12(15)   1
 UP BND1      I13(9)    1
 UP BND1      I14(12)   1
ENDATA
